100
32
12
26
21
20
25
4
6
3
23
11
1
1
11
15
12
1
1
17
1
1
19
1
1
3
1
4
1
1
1
1
1
1
3
22
6
2
2
1
17
3
7
1
17
1
3
1
2
20
1
1
1
2
1
1
22
2
7
1
27
1
1
2
1
4
2
1
16
1
1
5
1
1
1
5
1
1
3
2
1
1
17
4
1
2
2
1
1
1
1
19
5
1
1
1
1
4
2
4
1
2